p cnf 12 50 
4 -9 10 0
12 -6 -2 0
-2 -4 -1 0
-6 -9 8 0
5 6 4 0
-2 -11 8 0
-12 -9 -11 0
-10 9 11 0
-8 2 11 0
5 -10 -9 0
-11 12 -7 0
-12 -4 -11 0
-6 2 -8 0
6 -10 -1 0
5 12 -9 0
-12 6 10 0
2 5 -1 0
12 11 4 0
-8 3 -9 0
-5 -4 2 0
-10 12 9 0
-7 -4 -10 0
6 5 -3 0
-10 -8 6 0
-3 1 11 0
-4 10 -2 0
10 -12 -6 0
-10 -4 1 0
-8 -6 12 0
-4 -1 12 0
6 -4 -10 0
9 11 8 0
2 -10 7 0
-10 -7 -12 0
9 -3 -11 0
10 -1 -6 0
-7 -3 -6 0
-4 -6 -11 0
-12 -3 8 0
-5 -7 11 0
11 9 1 0
11 -3 -1 0
-3 -7 1 0
1 -4 -12 0
7 11 -5 0
-10 -7 12 0
2 -8 -11 0
2 -12 5 0
-12 11 -2 0
5 -7 10 0
